networks/zoo_106_2206/zoo_106_2206.txt
Number of groups: 58
Flow 69: {2 1} {1 4} {4 32} {32 85} 
Flow 79: {2 48} {48 49} {49 36} {36 43} {43 96} 
Flow 106: {4 22} {22 75} 
Flow 209: {7 27} {27 80} 
Flow 217: {6 46} {46 48} {48 35} {35 88} 
Flow 245: {10 12} {12 65} 
Flow 302: {5 6} {6 20} {20 73} 
Flow 478: {11 7} {7 8} {8 5} {5 58} 
Flow 534: {12 10} {10 29} {29 82} 
Flow 559: {13 6} {6 5} {5 8} {8 61} 
Flow 583: {14 4} {4 57} 
Flow 656: {15 7} {7 48} {48 46} {46 99} 
Flow 701: {52 50} {50 103} 
Flow 703: {16 53} {53 52} {52 105} 
Flow 715: {17 36} {36 37} {37 90} 
Flow 745: {18 50} {50 51} {51 44} {44 26} {26 79} 
Flow 784: {19 41} {41 50} {50 36} {36 17} {17 70} 
Flow 823: {9 10} {10 63} 
Flow 824: {8 7} {7 11} {11 64} 
Flow 825: {20 6} {6 13} {13 66} 
Flow 862: {21 6} {6 59} 
Flow 919: {22 4} {4 34} {34 87} 
Flow 928: {44 97} 
Flow 938: {23 4} {4 1} {1 2} {2 55} 
Flow 986: {24 52} {52 3} {3 4} {4 14} {14 67} 
Flow 1028: {25 41} {41 94} 
Flow 1053: {26 3} {3 52} {52 24} {24 77} 
Flow 1094: {27 7} {7 15} {15 68} 
Flow 1153: {28 10} {10 38} {38 91} 
Flow 1187: {29 10} {10 28} {28 81} 
Flow 1223: {30 50} {50 41} {41 25} {25 78} 
Flow 1289: {31 48} {48 26} {26 44} {44 53} {53 106} 
Flow 1305: {32 4} {4 23} {23 76} 
Flow 1337: {33 36} {36 10} {10 39} {39 92} 
Flow 1377: {34 4} {4 48} {48 47} {47 100} 
Flow 1384: {35 48} {48 2} 
Flow 1391: {46 6} {6 9} {9 62} 
Flow 1434: {49 48} {48 7} {7 60} 
Flow 1443: {36 50} {50 52} {52 53} {53 16} {16 69} 
Flow 1508: {37 36} {36 33} {33 86} 
Flow 1513: {38 39} 
Flow 1542: {38 10} {10 9} {9 6} {6 21} {21 74} 
Flow 1560: {38 37} {37 43} 
Flow 1598: {39 38} 
Flow 1600: {39 10} {10 36} {36 42} {42 40} {40 93} 
Flow 1687: {41 40} {40 42} {42 43} 
Flow 1713: {40 41} {41 19} {19 72} 
Flow 1741: {42 36} {36 49} {49 102} 
Flow 1768: {43 36} {36 89} 
Flow 1770: {43 37} {37 38} 
Flow 1774: {43 42} {42 95} 
Flow 1808: {51 50} {50 30} {30 83} 
Flow 1832: {45 3} {3 56} 
Flow 1856: {3 26} {26 48} {48 31} {31 84} 
Flow 1874: {45 44} {44 51} {51 104} 
Flow 1905: {48 4} {4 3} {3 45} 
Flow 1946: {47 48} {48 101} 
Flow 2199: {53 44} {44 45} {45 98} 
Time taken running everything: 120 seconds
