networks/zoo_106_2206/zoo_106_2206.sol
<?xml version = "1.0" encoding="UTF-8" standalone="yes"?>
<CPLEXSolution version="1.2">
 <header
   problemName="networks/zoo_106_2206/zoo_106_2206.lp"
   solutionName="incumbent"
   solutionIndex="-1"
   objectiveValue="58"
   solutionTypeValue="3"
   solutionTypeString="primal"
   solutionStatusValue="101"
   solutionStatusString="integer optimal solution"
   solutionMethodString="mip"
   primalFeasible="1"
   dualFeasible="1"
   MIPNodes="1169"
   MIPIterations="165735"
   writeLevel="3"/>
 <quality
   epInt="1.0000000000000001e-05"
   epRHS="9.9999999999999995e-07"
   maxIntInfeas="2.2892798767770728e-13"
   maxPrimalInfeas="1.1446399383885364e-12"
   maxX="4"
   maxSlack="10"/>
 <variables>
  <variable name="Y(69,32)" index="7103" value="1"/>
  <variable name="Y(79,43)" index="8154" value="1"/>
  <variable name="Y(106,22)" index="10941" value="1"/>
  <variable name="Y(209,27)" index="21658" value="1"/>
  <variable name="Y(217,35)" index="22498" value="1"/>
  <variable name="Y(245,12)" index="25387" value="1"/>
  <variable name="Y(302,20)" index="31323" value="1"/>
  <variable name="Y(478,5)" index="49612" value="1"/>
  <variable name="Y(534,29)" index="55460" value="1"/>
  <variable name="Y(559,8)" index="58039" value="1"/>
  <variable name="Y(583,4)" index="60531" value="1"/>
  <variable name="Y(656,46)" index="68165" value="1"/>
  <variable name="Y(701,50)" index="72849" value="1"/>
  <variable name="Y(703,52)" index="73059" value="1"/>
  <variable name="Y(715,37)" index="74292" value="1"/>
  <variable name="Y(745,26)" index="77401" value="1"/>
  <variable name="Y(784,17)" index="81448" value="1"/>
  <variable name="Y(823,10)" index="85497" value="1"/>
  <variable name="Y(824,11)" index="85602" value="1"/>
  <variable name="Y(825,13)" index="85708" value="1"/>
  <variable name="Y(862,6)" index="89549" value="1"/>
  <variable name="Y(919,34)" index="95505" value="1"/>
  <variable name="Y(928,44)" index="96451" value="1"/>
  <variable name="Y(938,2)" index="97449" value="1"/>
  <variable name="Y(986,14)" index="102453" value="1"/>
  <variable name="Y(1028,41)" index="106848" value="1"/>
  <variable name="Y(1053,24)" index="109431" value="1"/>
  <variable name="Y(1094,15)" index="113686" value="1"/>
  <variable name="Y(1153,38)" index="119845" value="1"/>
  <variable name="Y(1187,28)" index="123371" value="1"/>
  <variable name="Y(1223,25)" index="127112" value="1"/>
  <variable name="Y(1289,53)" index="134004" value="1"/>
  <variable name="Y(1305,23)" index="135638" value="1"/>
  <variable name="Y(1337,39)" index="138982" value="1"/>
  <variable name="Y(1377,47)" index="143150" value="1"/>
  <variable name="Y(1384,48)" index="143879" value="1"/>
  <variable name="Y(1391,9)" index="144568" value="1"/>
  <variable name="Y(1434,7)" index="149038" value="1"/>
  <variable name="Y(1443,16)" index="149983" value="1"/>
  <variable name="Y(1508,33)" index="156760" value="1"/>
  <variable name="Y(1513,38)" index="157285" value="1"/>
  <variable name="Y(1542,21)" index="160284" value="1"/>
  <variable name="Y(1560,37)" index="162172" value="1"/>
  <variable name="Y(1598,39)" index="166126" value="1"/>
  <variable name="Y(1600,40)" index="166335" value="1"/>
  <variable name="Y(1687,42)" index="175385" value="1"/>
  <variable name="Y(1713,19)" index="178066" value="1"/>
  <variable name="Y(1741,49)" index="181008" value="1"/>
  <variable name="Y(1768,36)" index="183803" value="1"/>
  <variable name="Y(1770,37)" index="184012" value="1"/>
  <variable name="Y(1774,42)" index="184433" value="1"/>
  <variable name="Y(1808,30)" index="187957" value="1"/>
  <variable name="Y(1832,3)" index="190426" value="1"/>
  <variable name="Y(1856,31)" index="192950" value="1"/>
  <variable name="Y(1874,51)" index="194842" value="1"/>
  <variable name="Y(1905,3)" index="198018" value="1"/>
  <variable name="Y(1946,48)" index="202327" value="1"/>
  <variable name="Y(2199,45)" index="228636" value="1"/>
  <variable name="X(1,2,938)" index="230361" value="1"/>
  <variable name="X(1,4,69)" index="231698" value="1"/>
  <variable name="X(2,1,69)" index="233904" value="1"/>
  <variable name="X(2,48,79)" index="236120" value="1"/>
  <variable name="X(2,55,938)" index="239185" value="1"/>
  <variable name="X(3,4,986)" index="241439" value="1"/>
  <variable name="X(3,26,1856)" index="244515" value="1"/>
  <variable name="X(3,45,1905)" index="246770" value="1"/>
  <variable name="X(3,52,1053)" index="248124" value="1"/>
  <variable name="X(3,56,1832)" index="251109" value="1"/>
  <variable name="X(4,1,938)" index="252421" value="1"/>
  <variable name="X(4,3,1905)" index="255594" value="1"/>
  <variable name="X(4,14,986)" index="256881" value="1"/>
  <variable name="X(4,22,106)" index="258207" value="1"/>
  <variable name="X(4,23,1305)" index="261612" value="1"/>
  <variable name="X(4,32,69)" index="262582" value="1"/>
  <variable name="X(4,34,919)" index="265638" value="1"/>
  <variable name="X(4,48,1377)" index="268302" value="1"/>
  <variable name="X(4,57,583)" index="269714" value="1"/>
  <variable name="X(5,6,302)" index="271639" value="1"/>
  <variable name="X(5,8,559)" index="274102" value="1"/>
  <variable name="X(5,58,478)" index="276227" value="1"/>
  <variable name="X(6,5,559)" index="278514" value="1"/>
  <variable name="X(6,9,1391)" index="281552" value="1"/>
  <variable name="X(6,13,825)" index="283192" value="1"/>
  <variable name="X(6,20,302)" index="284875" value="1"/>
  <variable name="X(6,21,1542)" index="288321" value="1"/>
  <variable name="X(6,46,217)" index="289202" value="1"/>
  <variable name="X(6,59,862)" index="292053" value="1"/>
  <variable name="X(7,8,478)" index="293875" value="1"/>
  <variable name="X(7,11,824)" index="296427" value="1"/>
  <variable name="X(7,15,1094)" index="298903" value="1"/>
  <variable name="X(7,27,209)" index="300224" value="1"/>
  <variable name="X(7,48,656)" index="302877" value="1"/>
  <variable name="X(7,60,1434)" index="305861" value="1"/>
  <variable name="X(8,5,478)" index="307111" value="1"/>
  <variable name="X(8,7,824)" index="309663" value="1"/>
  <variable name="X(8,61,559)" index="311604" value="1"/>
  <variable name="X(9,6,1542)" index="314793" value="1"/>
  <variable name="X(9,10,823)" index="316280" value="1"/>
  <variable name="X(9,62,1391)" index="319054" value="1"/>
  <variable name="X(10,9,1542)" index="321411" value="1"/>
  <variable name="X(10,12,245)" index="322320" value="1"/>
  <variable name="X(10,28,1187)" index="325468" value="1"/>
  <variable name="X(10,29,534)" index="327021" value="1"/>
  <variable name="X(10,36,1600)" index="330293" value="1"/>
  <variable name="X(10,38,1153)" index="332052" value="1"/>
  <variable name="X(10,39,1337)" index="334442" value="1"/>
  <variable name="X(10,63,823)" index="336134" value="1"/>
  <variable name="X(11,7,478)" index="337995" value="1"/>
  <variable name="X(11,64,824)" index="340547" value="1"/>
  <variable name="X(12,10,534)" index="342463" value="1"/>
  <variable name="X(12,65,245)" index="344380" value="1"/>
  <variable name="X(13,6,559)" index="346900" value="1"/>
  <variable name="X(13,66,825)" index="349372" value="1"/>
  <variable name="X(14,4,583)" index="351336" value="1"/>
  <variable name="X(14,67,986)" index="353945" value="1"/>
  <variable name="X(15,7,656)" index="355821" value="1"/>
  <variable name="X(15,68,1094)" index="358465" value="1"/>
  <variable name="X(16,53,703)" index="360280" value="1"/>
  <variable name="X(16,69,1443)" index="363226" value="1"/>
  <variable name="X(17,36,715)" index="364704" value="1"/>
  <variable name="X(17,70,784)" index="366979" value="1"/>
  <variable name="X(18,50,745)" index="369146" value="1"/>
  <variable name="X(19,41,784)" index="371391" value="1"/>
  <variable name="X(19,72,1713)" index="374526" value="1"/>
  <variable name="X(20,6,825)" index="375844" value="1"/>
  <variable name="X(20,73,302)" index="377527" value="1"/>
  <variable name="X(21,6,862)" index="380293" value="1"/>
  <variable name="X(21,74,1542)" index="383179" value="1"/>
  <variable name="X(22,4,919)" index="384762" value="1"/>
  <variable name="X(22,75,106)" index="386155" value="1"/>
  <variable name="X(23,4,938)" index="389193" value="1"/>
  <variable name="X(23,76,1305)" index="391766" value="1"/>
  <variable name="X(24,52,986)" index="393653" value="1"/>
  <variable name="X(24,77,1053)" index="395926" value="1"/>
  <variable name="X(25,41,1028)" index="398107" value="1"/>
  <variable name="X(25,78,1223)" index="400508" value="1"/>
  <variable name="X(26,3,1053)" index="402544" value="1"/>
  <variable name="X(26,44,1289)" index="404986" value="1"/>
  <variable name="X(26,48,1856)" index="407759" value="1"/>
  <variable name="X(26,79,745)" index="408854" value="1"/>
  <variable name="X(27,7,1094)" index="411409" value="1"/>
  <variable name="X(27,80,209)" index="412730" value="1"/>
  <variable name="X(28,10,1153)" index="415880" value="1"/>
  <variable name="X(28,81,1187)" index="418120" value="1"/>
  <variable name="X(29,10,1187)" index="420326" value="1"/>
  <variable name="X(29,82,534)" index="421879" value="1"/>
  <variable name="X(30,50,1223)" index="424774" value="1"/>
  <variable name="X(30,83,1808)" index="427565" value="1"/>
  <variable name="X(31,48,1289)" index="429252" value="1"/>
  <variable name="X(31,84,1856)" index="432025" value="1"/>
  <variable name="X(32,4,1305)" index="433680" value="1"/>
  <variable name="X(32,85,69)" index="434650" value="1"/>
  <variable name="X(33,36,1337)" index="438124" value="1"/>
  <variable name="X(33,86,1508)" index="440501" value="1"/>
  <variable name="X(34,4,1377)" index="442576" value="1"/>
  <variable name="X(34,87,919)" index="444324" value="1"/>
  <variable name="X(35,48,1384)" index="446995" value="1"/>
  <variable name="X(35,88,217)" index="448034" value="1"/>
  <variable name="X(36,10,1337)" index="451360" value="1"/>
  <variable name="X(36,17,784)" index="453013" value="1"/>
  <variable name="X(36,33,1508)" index="455943" value="1"/>
  <variable name="X(36,37,715)" index="457356" value="1"/>
  <variable name="X(36,42,1600)" index="460447" value="1"/>
  <variable name="X(36,43,79)" index="461132" value="1"/>
  <variable name="X(36,49,1741)" index="465000" value="1"/>
  <variable name="X(36,50,1443)" index="466908" value="1"/>
  <variable name="X(36,89,1768)" index="469439" value="1"/>
  <variable name="X(37,36,1508)" index="471385" value="1"/>
  <variable name="X(37,38,1770)" index="473853" value="1"/>
  <variable name="X(37,43,1560)" index="475849" value="1"/>
  <variable name="X(37,90,715)" index="477210" value="1"/>
  <variable name="X(38,10,1542)" index="480243" value="1"/>
  <variable name="X(38,37,1560)" index="482467" value="1"/>
  <variable name="X(38,39,1513)" index="484626" value="1"/>
  <variable name="X(38,91,1153)" index="486472" value="1"/>
  <variable name="X(39,10,1600)" index="489125" value="1"/>
  <variable name="X(39,38,1598)" index="491329" value="1"/>
  <variable name="X(39,92,1337)" index="493274" value="1"/>
  <variable name="X(40,41,1713)" index="495856" value="1"/>
  <variable name="X(40,42,1687)" index="498036" value="1"/>
  <variable name="X(40,93,1600)" index="500155" value="1"/>
  <variable name="X(41,19,1713)" index="502474" value="1"/>
  <variable name="X(41,25,1223)" index="504190" value="1"/>
  <variable name="X(41,40,1687)" index="506860" value="1"/>
  <variable name="X(41,50,784)" index="508163" value="1"/>
  <variable name="X(41,94,1028)" index="510613" value="1"/>
  <variable name="X(42,36,1741)" index="513532" value="1"/>
  <variable name="X(42,40,1600)" index="515597" value="1"/>
  <variable name="X(42,43,1687)" index="517890" value="1"/>
  <variable name="X(42,95,1774)" index="520183" value="1"/>
  <variable name="X(43,36,1768)" index="522383" value="1"/>
  <variable name="X(43,37,1770)" index="524591" value="1"/>
  <variable name="X(43,42,1774)" index="526801" value="1"/>
  <variable name="X(43,96,79)" index="527312" value="1"/>
  <variable name="X(44,26,745)" index="530184" value="1"/>
  <variable name="X(44,45,2199)" index="533844" value="1"/>
  <variable name="X(44,51,1874)" index="535725" value="1"/>
  <variable name="X(44,53,1289)" index="537346" value="1"/>
  <variable name="X(44,97,928)" index="539191" value="1"/>
  <variable name="X(45,3,1832)" index="542301" value="1"/>
  <variable name="X(45,44,1874)" index="544549" value="1"/>
  <variable name="X(45,98,2199)" index="547080" value="1"/>
  <variable name="X(46,6,1391)" index="548478" value="1"/>
  <variable name="X(46,48,217)" index="549510" value="1"/>
  <variable name="X(46,99,656)" index="552155" value="1"/>
  <variable name="X(47,48,1946)" index="555651" value="1"/>
  <variable name="X(47,100,1377)" index="557288" value="1"/>
  <variable name="X(48,2,1384)" index="559501" value="1"/>
  <variable name="X(48,4,1905)" index="562228" value="1"/>
  <variable name="X(48,7,1434)" index="563963" value="1"/>
  <variable name="X(48,26,1144)" index="565879" value="-2.2892798767770728e-13"/>
  <variable name="X(48,26,1289)" index="566024" value="1"/>
  <variable name="X(48,26,1761)" index="566496" value="2.2892798767770728e-13"/>
  <variable name="X(48,31,1856)" index="568797" value="1"/>
  <variable name="X(48,35,217)" index="569364" value="1"/>
  <variable name="X(48,46,656)" index="572009" value="1"/>
  <variable name="X(48,47,1377)" index="574936" value="1"/>
  <variable name="X(48,49,79)" index="575844" value="1"/>
  <variable name="X(48,101,1946)" index="579917" value="1"/>
  <variable name="X(49,36,79)" index="580256" value="1"/>
  <variable name="X(49,48,1434)" index="583817" value="1"/>
  <variable name="X(49,102,1741)" index="586330" value="1"/>
  <variable name="X(50,30,1808)" index="588603" value="1"/>
  <variable name="X(50,36,784)" index="589785" value="1"/>
  <variable name="X(50,41,1223)" index="592430" value="1"/>
  <variable name="X(50,51,745)" index="594158" value="1"/>
  <variable name="X(50,52,1443)" index="597062" value="1"/>
  <variable name="X(50,103,701)" index="598526" value="1"/>
  <variable name="X(51,44,745)" index="600776" value="1"/>
  <variable name="X(51,50,1808)" index="604045" value="1"/>
  <variable name="X(51,104,1874)" index="606317" value="1"/>
  <variable name="X(52,3,986)" index="607635" value="1"/>
  <variable name="X(52,24,1053)" index="609908" value="1"/>
  <variable name="X(52,50,701)" index="611762" value="1"/>
  <variable name="X(52,53,1443)" index="614710" value="1"/>
  <variable name="X(52,105,703)" index="616176" value="1"/>
  <variable name="X(53,16,1443)" index="619122" value="1"/>
  <variable name="X(53,44,2199)" index="622084" value="1"/>
  <variable name="X(53,52,703)" index="622794" value="1"/>
  <variable name="X(53,106,1289)" index="625586" value="1"/>
  <variable name="C(69,1)" index="626836" value="1"/>
  <variable name="C(69,4)" index="626837" value="2"/>
  <variable name="C(69,32)" index="626838" value="3"/>
  <variable name="C(79,48)" index="626887" value="1"/>
  <variable name="C(79,49)" index="626888" value="2"/>
  <variable name="C(79,36)" index="626889" value="3"/>
  <variable name="C(79,43)" index="626890" value="4"/>
  <variable name="C(106,22)" index="627014" value="1"/>
  <variable name="C(209,27)" index="627452" value="1"/>
  <variable name="C(217,46)" index="627495" value="1"/>
  <variable name="C(217,48)" index="627496" value="2"/>
  <variable name="C(217,35)" index="627497" value="3"/>
  <variable name="C(245,12)" index="627637" value="1"/>
  <variable name="C(302,6)" index="627898" value="1"/>
  <variable name="C(302,20)" index="627899" value="2"/>
  <variable name="C(478,7)" index="628704" value="1"/>
  <variable name="C(478,8)" index="628705" value="2"/>
  <variable name="C(478,5)" index="628706" value="3"/>
  <variable name="C(534,10)" index="629011" value="1"/>
  <variable name="C(534,29)" index="629012" value="2"/>
  <variable name="C(559,6)" index="629125" value="1"/>
  <variable name="C(559,5)" index="629126" value="2"/>
  <variable name="C(559,8)" index="629127" value="3"/>
  <variable name="C(583,4)" index="629254" value="0.99999999999999978"/>
  <variable name="C(656,7)" index="629644" value="1"/>
  <variable name="C(656,48)" index="629645" value="2"/>
  <variable name="C(656,46)" index="629646" value="3"/>
  <variable name="C(701,50)" index="629916" value="1"/>
  <variable name="C(703,53)" index="629922" value="1"/>
  <variable name="C(703,52)" index="629923" value="2"/>
  <variable name="C(715,36)" index="629974" value="1"/>
  <variable name="C(715,37)" index="629975" value="2"/>
  <variable name="C(745,50)" index="630126" value="1"/>
  <variable name="C(745,51)" index="630127" value="2"/>
  <variable name="C(745,44)" index="630128" value="3"/>
  <variable name="C(745,26)" index="630129" value="4"/>
  <variable name="C(784,41)" index="630333" value="1"/>
  <variable name="C(784,50)" index="630334" value="2"/>
  <variable name="C(784,36)" index="630335" value="3"/>
  <variable name="C(784,17)" index="630336" value="4"/>
  <variable name="C(823,10)" index="630535" value="1"/>
  <variable name="C(824,7)" index="630540" value="1"/>
  <variable name="C(824,11)" index="630541" value="2.0000000000000004"/>
  <variable name="C(825,6)" index="630543" value="1"/>
  <variable name="C(825,13)" index="630544" value="2"/>
  <variable name="C(862,6)" index="630755" value="1"/>
  <variable name="C(919,4)" index="631060" value="1"/>
  <variable name="C(919,34)" index="631061" value="2"/>
  <variable name="C(938,4)" index="631157" value="1"/>
  <variable name="C(938,1)" index="631158" value="2"/>
  <variable name="C(938,2)" index="631159" value="3"/>
  <variable name="C(986,52)" index="631407" value="1"/>
  <variable name="C(986,3)" index="631408" value="2"/>
  <variable name="C(986,4)" index="631409" value="3"/>
  <variable name="C(986,14)" index="631410" value="4"/>
  <variable name="C(1028,41)" index="631635" value="1"/>
  <variable name="C(1053,3)" index="631741" value="1"/>
  <variable name="C(1053,52)" index="631742" value="2"/>
  <variable name="C(1053,24)" index="631743" value="3"/>
  <variable name="C(1094,7)" index="631915" value="1"/>
  <variable name="C(1094,15)" index="631916" value="2"/>
  <variable name="C(1153,28)" index="632241" value="2"/>
  <variable name="C(1153,10)" index="632242" value="3"/>
  <variable name="C(1153,38)" index="632243" value="4"/>
  <variable name="C(1187,10)" index="632421" value="1"/>
  <variable name="C(1187,28)" index="632422" value="2"/>
  <variable name="C(1223,50)" index="632602" value="1"/>
  <variable name="C(1223,41)" index="632603" value="2"/>
  <variable name="C(1223,25)" index="632604" value="3"/>
  <variable name="C(1289,48)" index="632903" value="1"/>
  <variable name="C(1289,26)" index="632904" value="2"/>
  <variable name="C(1289,44)" index="632905" value="3"/>
  <variable name="C(1289,53)" index="632906" value="4"/>
  <variable name="C(1305,4)" index="632981" value="1"/>
  <variable name="C(1305,23)" index="632982" value="2"/>
  <variable name="C(1337,36)" index="633139" value="1"/>
  <variable name="C(1337,10)" index="633140" value="2"/>
  <variable name="C(1337,39)" index="633141" value="3"/>
  <variable name="C(1377,4)" index="633346" value="1"/>
  <variable name="C(1377,48)" index="633347" value="2"/>
  <variable name="C(1377,47)" index="633348" value="3"/>
  <variable name="C(1384,48)" index="633377" value="1"/>
  <variable name="C(1391,6)" index="633405" value="1"/>
  <variable name="C(1391,9)" index="633406" value="2"/>
  <variable name="C(1434,48)" index="633607" value="1"/>
  <variable name="C(1434,7)" index="633608" value="2"/>
  <variable name="C(1443,50)" index="633643" value="1"/>
  <variable name="C(1443,52)" index="633644" value="2"/>
  <variable name="C(1443,53)" index="633645" value="3"/>
  <variable name="C(1443,16)" index="633646" value="4"/>
  <variable name="C(1508,36)" index="633920" value="1"/>
  <variable name="C(1508,33)" index="633921" value="2"/>
  <variable name="C(1542,10)" index="634074" value="1"/>
  <variable name="C(1542,9)" index="634075" value="2"/>
  <variable name="C(1542,6)" index="634076" value="3"/>
  <variable name="C(1542,21)" index="634077" value="4"/>
  <variable name="C(1560,37)" index="634164" value="1"/>
  <variable name="C(1600,10)" index="634370" value="1"/>
  <variable name="C(1600,36)" index="634371" value="2"/>
  <variable name="C(1600,42)" index="634372" value="3"/>
  <variable name="C(1600,40)" index="634373" value="4"/>
  <variable name="C(1687,40)" index="634820" value="1"/>
  <variable name="C(1687,42)" index="634821" value="2"/>
  <variable name="C(1713,41)" index="634944" value="1"/>
  <variable name="C(1713,19)" index="634945" value="2"/>
  <variable name="C(1741,36)" index="635067" value="1"/>
  <variable name="C(1741,49)" index="635068" value="2"/>
  <variable name="C(1768,36)" index="635196" value="1"/>
  <variable name="C(1770,37)" index="635200" value="1"/>
  <variable name="C(1774,42)" index="635214" value="1"/>
  <variable name="C(1808,50)" index="635376" value="1"/>
  <variable name="C(1808,30)" index="635377" value="2"/>
  <variable name="C(1832,3)" index="635474" value="1"/>
  <variable name="C(1856,26)" index="635606" value="1"/>
  <variable name="C(1856,48)" index="635607" value="2"/>
  <variable name="C(1856,31)" index="635608" value="3"/>
  <variable name="C(1874,44)" index="635697" value="1"/>
  <variable name="C(1874,51)" index="635698" value="2"/>
  <variable name="C(1905,4)" index="635829" value="1"/>
  <variable name="C(1905,3)" index="635830" value="2"/>
  <variable name="C(1946,48)" index="636018" value="1"/>
  <variable name="C(2199,53)" index="637077" value="2"/>
  <variable name="C(2199,44)" index="637078" value="3"/>
  <variable name="C(2199,45)" index="637079" value="4"/>
 </variables>
</CPLEXSolution>
